24
Nitronyl nitroxide core radical - Optimized
C        0.000000      0.000000      0.472000
N       -1.112000      0.000000     -0.293000
N        1.112000      0.000000     -0.293000
O       -2.315000      0.000000      0.178000
O        2.315000      0.000000      0.178000
C       -0.745000      0.000000     -1.745000
C        0.745000      0.000000     -1.745000
H        0.000000      0.000000      1.572000
C       -1.425000      1.245000     -2.342000
H       -1.070000      2.164000     -1.854000
H       -2.518000      1.201000     -2.228000
H       -1.189000      1.320000     -3.411000
C       -1.425000     -1.245000     -2.342000
H       -2.518000     -1.201000     -2.228000
H       -1.070000     -2.164000     -1.854000
H       -1.189000     -1.320000     -3.411000
C        1.425000      1.245000     -2.342000
H        2.518000      1.201000     -2.228000
H        1.070000      2.164000     -1.854000
H        1.189000      1.320000     -3.411000
C        1.425000     -1.245000     -2.342000
H        1.070000     -2.164000     -1.854000
H        2.518000     -1.201000     -2.228000
H        1.189000     -1.320000     -3.411000
